c description: Random 3-CNF over 14 variables and 42 clauses
p cnf 14 42
-2 -5 -9 0
4 9 13 0
-6 -7 9 0
-2 5 -14 0
6 -11 -12 0
6 8 10 0
3 4 12 0
10 -11 -13 0
2 6 -9 0
-3 11 12 0
3 -13 14 0
-4 -6 -13 0
3 7 13 0
-1 3 14 0
-1 -4 -6 0
-1 -9 11 0
-3 -6 11 0
-6 -8 13 0
4 7 -10 0
3 9 13 0
1 -2 6 0
5 6 14 0
-1 2 -13 0
-4 7 -8 0
2 5 9 0
5 8 14 0
3 12 13 0
-1 -9 12 0
-10 12 -14 0
-3 -7 11 0
4 -6 -8 0
6 7 -8 0
4 12 -13 0
-5 -11 13 0
-7 8 -10 0
-3 9 14 0
-6 9 13 0
-1 -8 13 0
1 -2 9 0
3 -10 -11 0
-5 -7 -12 0
-1 4 -9 0